Mack/Bortfeldt(2008)
Bin-Packing-Problem
BP-RG/SBSBPP/SSSCSP
Testcase-ID	1
Problem-ID	4
no_item_types	3
no_items	1944
CONTAINER_DATA (l,w,h)	587	233	220
ITEMS_DATA:
Type	x	y	z	no_items
1	113	92	33	622
2	57	33	29	671
3	52	37	28	651
